p tw 26 39
1 5
1 6
1 17
2 4
2 16
2 25
3 15
3 18
3 24
4 19
4 21
5 7
5 8
6 9
6 13
7 17
7 22
8 9
8 10
9 11
10 17
10 20
11 15
11 20
12 16
12 23
12 25
13 15
13 21
14 18
14 19
14 25
16 18
19 23
20 26
21 22
22 26
23 24
24 26
